/* Objective function */
min: - 0.0054fpdi - 0.0054fpdo + 0.05apdi + 0.05apdo + 0.0002pi + 0.0002po - 0.5fsi - 0.5fso;

apdi = 0.0 hi + -0.0 li + 12.70849 ri + -0.00619 ci + -1.91924 si + 0.0 ti + 0.12522 fTempIi + 0.00618 ami + -155.65214;
asi = 0.0 hi + 0.0 li + -0.0 ri + -0.0 ci + -0.0 si + -0.0 ti + 0.0 fTempIi + 6e-05 ami + -0.02;
aTempOi = 0.0 hi + -0.0 li + 0.29108 ri + -0.0434 ci + -0.05084 si + -0.0 ti + 0.78309 fTempIi + -0.00018 ami + 7.01419;
fpdi = 0.0 hi + 0.0 li + 9.88483 ri + -10.20392 ci + -0.02159 si + 0.0 ti + -0.53993 fTempIi + 7e-05 ami + 277.16633;
fsi = 0.0 hi + 0.0 li + -2e-05 ri + -0.04098 ci + 0.0 si + 0.0 ti + 3e-05 fTempIi + -0.0 ami + 2.11931;
fTempOi = 0.0 hi + -0.0 li + -0.28794 ri + 0.04314 ci + 0.05018 si + 0.0 ti + 0.23612 fTempIi + -0.00015 ami + 9.59832;
pi = 0.0 hi + -0.0 li + 382.65 ri + 3.13 ci + -40.82914 si + -0.0 ti + 0.0 fTempIi + 0.0 ami + 1549.52286;

apdo = 0.0 ho + -0.0 lo + 12.87143 ro + 0.00881 co + -1.93569 so + -0.0 to + 0.11532 fTempIo + 0.00636 amo + -159.57029;
aso = 0.0 ho + 0.0 lo + -0.0 ro + -0.0 co + -0.0 so + -0.0 to + 0.0 fTempIo + 6e-05 amo + -0.02;
aTempOo = 0.0 ho + -0.0 lo + -0.31817 ro + 0.04879 co + 0.05475 so + 0.0 to + 0.74323 fTempIo + 0.00019 amo + -0.41011;
fpdo = 0.0 ho + 0.0 lo + 9.63517 ro + -10.14885 co + 0.02297 so + -0.0 to + -0.54962 fTempIo + -8e-05 amo + 275.39574;
fso = 0.0 ho + 0.0 lo + 0.0 ro + -0.041 co + -0.0 so + -0.0 to + 1e-05 fTempIo + 0.0 amo + 2.1197;
fTempOo = 0.0 ho + -0.0 lo + 0.3149 ro + -0.04734 co + -0.05425 so + -0.0 to + 0.26609 fTempIo + 0.00017 amo + 12.48848;
po = 0.0 ho + -0.0 lo + 382.65 ro + 3.13 co + -40.82914 so + -0.0 to + 0.0 fTempIo + 0.0 amo + 1549.52286;

/* Variable bounds */
aTempOi > 18.6;
1 =r6i + r8i + r10i + r12i + r14i;
ri =6r6i + 8r8i + 10r10i + 12r12i + 14r14i;
1 =s25i + s30i + s40i;
si =25s25i + 30s30i + 40s40i;
ti = 1;
apdi > 100;
apdi < 300;
asi > 0;
asi < 3;
aTempOi > 5;
aTempOi < 25;
fpdi > 100;
fpdi < 300;
fsi > 0;
fsi < 1.25;
fTempOi > 5;
fTempOi < 25;
pi > 0;
ri > 6;
ri < 14;
ci > 22;
ci < 60;
si > 25;
si < 60;
ti > 1;
ti < 3;
fTempIi > 5;
fTempIi < 25;

/* aTempOo < 11.4; */
1 =r6o + r8o + r10o + r12o + r14o;
ro =6r6o + 8r8o + 10r10o + 12r12o + 14r14o;
1 =s25o + s30o + s40o;
so =25s25o + 30s30o + 40s40o;
to = 1;
apdo > 100;
apdo < 300;
aso > 0;
aso < 3;
aTempOo > 5;
aTempOo < 25;
fpdo > 100;
fpdo < 300;
fso > 0;
fso < 1.25;
fTempOo > 5;
fTempOo < 25;
po > 0;
ro > 6;
ro < 14;
co > 22;
co < 60;
so > 25;
so < 60;
to > 1;
to < 3;
fTempIo > 5;
fTempIo < 25;
int hi,li,si,ti,ci,ri,ami;
int ho,lo,so,to,co,ro,amo;
bin s25i,s30i,s40i,s50i,s60i,r6i,r8i,r10i,r12i,r14i;
bin s25o,s30o,s40o,s50o,s60o,r6o,r8o,r10o,r12o,r14o;
